(declare-fun temp3988_1 () (_ BitVec 64))
(declare-fun temp3988_2 () (_ BitVec 64))
(declare-fun var70588 () (_ BitVec 64))
(declare-fun k!0 () Bool)
(declare-fun ARGNAME_input_NAMEEND_DIM () (_ BitVec 64))
(declare-fun temp3988_3 () (_ BitVec 64))
(declare-fun ARGNAME_paddings_NAMEEND_DIM () (_ BitVec 64))
(declare-fun var137105 () (_ BitVec 64))
(declare-fun var137101 () (_ BitVec 64))
(declare-fun var70624 () (_ BitVec 64))
(declare-fun temp3988_4 () (_ BitVec 64))
(declare-fun temp3988_5 () (_ BitVec 64))
(declare-fun ARGNAME_paddings_NAMEEND_DIMSIZE
             ()
             (Array (_ BitVec 64) (_ BitVec 64)))
(declare-fun temp3988_6 () (_ BitVec 64))
(declare-fun temp3988_7 () (_ BitVec 64))
(declare-fun temp3988_8 () (_ BitVec 64))
(declare-fun temp3988_9 () (_ BitVec 64))
(declare-fun temp3988_10 () (_ BitVec 64))
(declare-fun temp3988_11 () (_ BitVec 64))
(declare-fun temp3988_12 () (_ BitVec 64))
(declare-fun temp3988_13 () (_ BitVec 64))
(declare-fun temp3988_14 () (_ BitVec 64))
(declare-fun temp3988_15 () (_ BitVec 64))
(declare-fun temp3988_16 () (_ BitVec 64))
(declare-fun temp3988_17 () (_ BitVec 64))
(declare-fun temp3988_18 () (_ BitVec 64))
(declare-fun var70628 () (_ BitVec 64))
(declare-fun temp3988_19 () (_ BitVec 64))
(declare-fun var70631 () (_ BitVec 64))
(declare-fun temp3988_20 () (_ BitVec 64))
(declare-fun temp3988_21 () (_ BitVec 64))
(declare-fun temp3988_22 () (_ BitVec 64))
(declare-fun var70672 () (_ BitVec 64))
(declare-fun var70673 () (_ BitVec 64))
(declare-fun temp3988_23 () (_ BitVec 64))
(declare-fun temp3988_25 () (_ BitVec 64))
(declare-fun temp3988_24 () (_ BitVec 64))
(declare-fun temp3988_27 () (_ BitVec 64))
(declare-fun temp3988_26 () (_ BitVec 64))
(declare-fun temp3988_29 () (_ BitVec 64))
(declare-fun temp3988_28 () (_ BitVec 64))
(declare-fun temp3988_30 () (_ BitVec 64))
(declare-fun ARGNAME_constant_values_NAMEEND_DIM () (_ BitVec 64))
(declare-fun var596104 () (_ BitVec 64))
(declare-fun var596100 () (_ BitVec 64))
(declare-fun var70737 () (_ BitVec 64))
(declare-fun temp3988_31 () (_ BitVec 64))
(declare-fun temp3988_32 () (_ BitVec 64))
(declare-fun var70819 () (_ BitVec 64))
(declare-fun temp3988_33 () (_ BitVec 64))
(declare-fun temp3988_34 () (_ BitVec 64))
(declare-fun var70840 () (_ BitVec 64))
(declare-fun var727224 () (_ BitVec 64))
(declare-fun temp3988_35 () (_ BitVec 64))
(declare-fun var727225 () (_ BitVec 64))
(declare-fun temp3988_36 () (_ BitVec 64))
(declare-fun var794563 () (_ BitVec 64))
(declare-fun var727228 () (_ BitVec 64))
(declare-fun temp3988_37 () (_ BitVec 64))
(declare-fun var1185976 () (_ BitVec 64))
(declare-fun temp3988_38 () (_ BitVec 64))
(declare-fun var1185977 () (_ BitVec 64))
(declare-fun temp3988_39 () (_ BitVec 64))
(declare-fun var1253315 () (_ BitVec 64))
(declare-fun var1185980 () (_ BitVec 64))
(declare-fun temp3988_40 () (_ BitVec 64))
(declare-fun var70890 () (_ BitVec 64))
(declare-fun temp3988_41 () (_ BitVec 64))
(declare-fun ARGNAME_input_NAMEEND_DIMSIZE
             ()
             (Array (_ BitVec 64) (_ BitVec 64)))
(declare-fun temp3988_42 () (_ BitVec 64))
(declare-fun temp3988_43 () (_ BitVec 64))
(declare-fun temp3988_44 () (_ BitVec 64))
(declare-fun temp3988_45 () (_ BitVec 64))
(declare-fun temp3988_46 () (_ BitVec 64))
(declare-fun temp3988_47 () (_ BitVec 64))
(declare-fun temp3988_48 () (_ BitVec 64))
(declare-fun temp3988_49 () (_ BitVec 64))
(declare-fun temp3988_50 () (_ BitVec 64))
(declare-fun temp3988_51 () (_ BitVec 64))
(declare-fun temp3988_52 () (_ BitVec 64))
(declare-fun temp3988_53 () (_ BitVec 64))
(declare-fun var70891 () (_ BitVec 64))
(declare-fun temp3988_54 () (_ BitVec 64))
(declare-fun var70921 () (_ BitVec 64))
(declare-fun var70925 () (_ BitVec 64))
(declare-fun temp3988_55 () (_ BitVec 64))
(declare-fun var70926 () (_ BitVec 64))
(declare-fun temp3988_56 () (_ BitVec 64))
(declare-fun var70828 () (_ BitVec 64))
(declare-fun var70827 () (_ BitVec 64))
(declare-fun temp3988_59 () (_ BitVec 64))
(declare-fun var70933 () (_ BitVec 64))
(declare-fun temp3988_60 () (_ BitVec 64))
(declare-fun var70935 () (_ BitVec 64))
(declare-fun temp3988_61 () (_ BitVec 64))
(declare-fun temp3988_62 () (_ BitVec 64))
(declare-fun var71011 () (_ BitVec 64))
(declare-fun temp3988_63 () (_ BitVec 64))
(declare-fun temp3988_65 () (_ BitVec 64))
(declare-fun temp3988_64 () (_ BitVec 64))
(declare-fun temp3988_67 () (_ BitVec 64))
(declare-fun temp3988_66 () (_ BitVec 64))
(declare-fun temp3988_69 () (_ BitVec 64))
(declare-fun temp3988_68 () (_ BitVec 64))
(declare-fun temp3988_70 () (_ BitVec 64))
(declare-fun var2432187 () (_ BitVec 64))
(declare-fun temp3988_71 () (_ BitVec 64))
(assert (= temp3988_1 #x0000000000000009))
(assert (= var70588
   (ite (bvslt ARGNAME_input_NAMEEND_DIM temp3988_1)
        #x0000000000000001
        #x0000000000000000)))
(assert (= temp3988_2 #x0000000000000001))
(assert (= var70588 temp3988_2))
(assert (= temp3988_3 #x0000000000000002))
(assert (= var137105
   (ite (= ARGNAME_paddings_NAMEEND_DIM temp3988_3)
        #x0000000000000001
        #x0000000000000000)))
(assert (= var137101 var137105))
(assert (= var70624 var137101))
(assert (= temp3988_4 #x0000000000000001))
(assert (= var70624 temp3988_4))
(assert (= temp3988_5 #x0000000000000000))
(assert (= temp3988_6 (select ARGNAME_paddings_NAMEEND_DIMSIZE temp3988_5)))
(assert (= temp3988_7 #x0000000000000001))
(assert (= temp3988_8 (select ARGNAME_paddings_NAMEEND_DIMSIZE temp3988_7)))
(assert (= temp3988_9 #x0000000000000002))
(assert (= temp3988_10 (select ARGNAME_paddings_NAMEEND_DIMSIZE temp3988_9)))
(assert (= temp3988_11 #x0000000000000003))
(assert (= temp3988_12 (select ARGNAME_paddings_NAMEEND_DIMSIZE temp3988_11)))
(assert (= temp3988_13 #x0000000000000004))
(assert (= temp3988_14 (select ARGNAME_paddings_NAMEEND_DIMSIZE temp3988_13)))
(assert (= temp3988_15 #x0000000000000005))
(assert (= temp3988_16 (select ARGNAME_paddings_NAMEEND_DIMSIZE temp3988_15)))
(assert (= temp3988_17 #x0000000000000001))
(assert (= temp3988_18 (select ARGNAME_paddings_NAMEEND_DIMSIZE temp3988_17)))
(assert (= var70628 temp3988_18))
(assert (= temp3988_19 #x0000000000000002))
(assert (= var70631
   (ite (= var70628 temp3988_19) #x0000000000000001 #x0000000000000000)))
(assert (= temp3988_20 #x0000000000000001))
(assert (= var70631 temp3988_20))
(assert (= temp3988_21 #x0000000000000000))
(assert (= temp3988_22 (select ARGNAME_paddings_NAMEEND_DIMSIZE temp3988_21)))
(assert (= var70672 temp3988_22))
(assert (= var70673
   (ite (= var70672 ARGNAME_input_NAMEEND_DIM)
        #x0000000000000001
        #x0000000000000000)))
(assert (= temp3988_23 #x0000000000000001))
(assert (= var70673 temp3988_23))
(assert (= temp3988_25 #x0000000000000000))
(assert (= temp3988_24 temp3988_25))
(assert (= temp3988_27 #x0000000000000000))
(assert (= temp3988_26 temp3988_27))
(assert (= temp3988_29 #x0000000000000000))
(assert (= temp3988_28 temp3988_29))
(assert (= temp3988_30 #x0000000000000000))
(assert (= var596104
   (ite (= ARGNAME_constant_values_NAMEEND_DIM temp3988_30)
        #x0000000000000001
        #x0000000000000000)))
(assert (= var596100 var596104))
(assert (= var70737 var596100))
(assert (= temp3988_31 #x0000000000000001))
(assert (= var70737 temp3988_31))
(assert (= temp3988_32 #x0000000000000000))
(assert (= var70819
   (ite (bvsgt ARGNAME_input_NAMEEND_DIM temp3988_32)
        #x0000000000000001
        #x0000000000000000)))
(assert (= temp3988_33 #x0000000000000001))
(assert (= var70819 temp3988_33))
(assert (= temp3988_34 #x0000000000000000))
(assert (= var70840 temp3988_34))
(assert (= var727224 var70840))
(assert (= temp3988_35 #x0000000000000000))
(assert (= var727225 temp3988_35))
(assert (= temp3988_36 #x0000000000000001))
(assert (= var794563 temp3988_36))
(assert (= var727228 var794563))
(assert (= temp3988_37 #x0000000000000001))
(assert (= var727228 temp3988_37))
(assert (= var1185976 var70840))
(assert (= temp3988_38 #x0000000000000001))
(assert (= var1185977 temp3988_38))
(assert (= temp3988_39 #x0000000000000001))
(assert (= var1253315 temp3988_39))
(assert (= var1185980 var1253315))
(assert (= temp3988_40 #x0000000000000001))
(assert (= var1185980 temp3988_40))
(assert (= var70890 var70840))
(assert (= temp3988_41 #x0000000000000000))
(assert (= temp3988_42 (select ARGNAME_input_NAMEEND_DIMSIZE temp3988_41)))
(assert (= temp3988_43 #x0000000000000001))
(assert (= temp3988_44 (select ARGNAME_input_NAMEEND_DIMSIZE temp3988_43)))
(assert (= temp3988_45 #x0000000000000002))
(assert (= temp3988_46 (select ARGNAME_input_NAMEEND_DIMSIZE temp3988_45)))
(assert (= temp3988_47 #x0000000000000003))
(assert (= temp3988_48 (select ARGNAME_input_NAMEEND_DIMSIZE temp3988_47)))
(assert (= temp3988_49 #x0000000000000004))
(assert (= temp3988_50 (select ARGNAME_input_NAMEEND_DIMSIZE temp3988_49)))
(assert (= temp3988_51 #x0000000000000005))
(assert (= temp3988_52 (select ARGNAME_input_NAMEEND_DIMSIZE temp3988_51)))
(assert (= temp3988_53 (select ARGNAME_input_NAMEEND_DIMSIZE var70890)))
(assert (= var70891 temp3988_53))
(assert (= temp3988_54 #x0000000000000000))
(assert (= var70921 temp3988_54))
(assert (= var70925 var70921))
(assert (= temp3988_55 #x0000000000000000))
(assert (= var70926
   (ite (= var70925 temp3988_55) #x0000000000000001 #x0000000000000000)))
(assert (= temp3988_56 #x0000000000000001))
(assert (= var70828 (bvadd var70840 temp3988_56)))
(assert (= var70827
   (ite (= var70828 ARGNAME_input_NAMEEND_DIM)
        #x0000000000000001
        #x0000000000000000)))
(assert (= temp3988_59 #x000000000000000a))
(assert (= var70933 temp3988_59))
(assert (= temp3988_60 #x000000000000000a))
(assert (= var70935
   (ite (= var70933 temp3988_60) #x0000000000000001 #x0000000000000000)))
(assert (= temp3988_61 #x0000000000000001))
(assert (= var70935 temp3988_61))
(assert (= temp3988_62 #x0000000000000001))
(assert (= var71011
   (ite (bvsgt ARGNAME_input_NAMEEND_DIM temp3988_62)
        #x0000000000000001
        #x0000000000000000)))
(assert (= temp3988_63 #x0000000000000001))
(assert (= var71011 temp3988_63))
(assert (= temp3988_65 #x0000000000000000))
(assert (= temp3988_64 temp3988_65))
(assert (= temp3988_67 #x0000000000000000))
(assert (= temp3988_66 temp3988_67))
(assert (= temp3988_69 #x0000000000000000))
(assert (= temp3988_68 temp3988_69))
(assert (= temp3988_70 #x0000000000000003))
(assert (= var2432187 temp3988_70))
(assert (= temp3988_71 #x0000000000000004))
(assert (or false (= ARGNAME_input_NAMEEND_DIM temp3988_71)))
(model-add temp3988_1 () (_ BitVec 64) #x0000000000000009)
(model-add temp3988_2 () (_ BitVec 64) #x0000000000000001)
(model-add var70588 () (_ BitVec 64) #x0000000000000001)
(model-del k!0)
(model-add ARGNAME_input_NAMEEND_DIM
           ()
           (_ BitVec 64)
           (ite (or k!0 (= #x0000000000000009 #x8000000000000000))
                #x0000000000000009
                (bvsub #x0000000000000009 #x0000000000000001)))


